54040
30 24 299
24 10 545
10 44 436
44 1 787
1 51 598
51 14 631
14 35 679
35 45 402
45 38 214
38 15 451
15 9 734
9 21 117
21 28 544
28 20 516
20 22 176
22 48 1461
48 25 560
25 54 397
54 27 487
27 5 404
5 2 385
2 42 1096
42 39 1279
39 50 1042
50 12 644
12 4 723
4 36 467
36 6 517
6 19 846
19 49 763
49 34 1131
34 23 296
23 37 802
37 7 368
7 43 383
43 31 676
31 40 362
40 18 1369
18 47 897
47 16 415
16 52 938
52 33 396
33 53 401
53 46 491
46 29 944
29 3 380
3 17 606
17 11 768
11 8 723
8 13 471
13 41 2012
41 32 4807
32 0 7621
0 26 4123
26 30 4460
